letting maxWeight=74
letting values=[35, 44, 39, 40, 3, 11, 36, 33, 29, 23, 23, 7, 52, 54, 8, 3, 14, 55, 8, 38, 15, 13, 49, 37, 49, 18, 7, 19, 40, 10, 42, 52, 26, 23, 23, 43, 44, 24, 9, 52, 42, 47, 5, 49, 56, 8, 18, 38, 11, 18, 5, 15, 52, 55, 13, 29, 30, 29, 38, 25, 31, 16, 4]
letting weights=[10, 12, 19, 12, 4, 15, 26, 4, 15, 9, 14, 12, 7, 29, 10, 1, 6, 22, 2, 9, 25, 20, 3, 23, 12, 15, 6, 23, 3, 20, 21, 24, 17, 28, 21, 6, 3, 23, 3, 10, 19, 21, 16, 17, 10, 14, 10, 14, 28, 23, 9, 21, 12, 6, 14, 4, 17, 1, 26, 8, 27, 2, 9]
